networks/zoo_38_69/zoo_38_69-lower.sol
<?xml version = "1.0" encoding="UTF-8" standalone="yes"?>
<CPLEXSolution version="1.2">
 <header
   problemName="networks/zoo_38_69/zoo_38_69-lower.lp"
   solutionName="incumbent"
   solutionIndex="-1"
   objectiveValue="15"
   solutionTypeValue="3"
   solutionTypeString="primal"
   solutionStatusValue="101"
   solutionStatusString="integer optimal solution"
   solutionMethodString="mip"
   primalFeasible="1"
   dualFeasible="1"
   MIPNodes="0"
   MIPIterations="0"
   writeLevel="3"/>
 <quality
   epInt="1.0000000000000001e-05"
   epRHS="9.9999999999999995e-07"
   maxIntInfeas="0"
   maxPrimalInfeas="0"
   maxX="1"
   maxSlack="1"/>
 <variables>
  <variable name="Y(1,17)" index="14" value="1"/>
  <variable name="Y(4,6)" index="101" value="1"/>
  <variable name="Y(5,10)" index="137" value="1"/>
  <variable name="Y(6,11)" index="170" value="1"/>
  <variable name="Y(8,18)" index="239" value="1"/>
  <variable name="Y(10,3)" index="290" value="1"/>
  <variable name="Y(11,4)" index="323" value="1"/>
  <variable name="Y(12,7)" index="358" value="1"/>
  <variable name="Y(13,8)" index="391" value="1"/>
  <variable name="Y(16,12)" index="491" value="1"/>
  <variable name="Y(17,13)" index="524" value="1"/>
  <variable name="Y(25,9)" index="776" value="1"/>
  <variable name="Y(32,19)" index="1008" value="1"/>
  <variable name="Y(47,1)" index="1472" value="1"/>
  <variable name="Y(50,5)" index="1572" value="1"/>
  <variable name="X(1,4,1)" index="2208" value="1"/>
  <variable name="X(1,20,47)" index="2323" value="1"/>
  <variable name="X(2,19,2)" index="2347" value="1"/>
  <variable name="X(3,4,3)" index="2417" value="1"/>
  <variable name="X(3,11,6)" index="2489" value="1"/>
  <variable name="X(3,22,10)" index="2562" value="1"/>
  <variable name="X(4,1,47)" index="2668" value="1"/>
  <variable name="X(4,3,6)" index="2696" value="1"/>
  <variable name="X(4,10,5)" index="2764" value="1"/>
  <variable name="X(4,17,1)" index="2829" value="1"/>
  <variable name="X(4,23,11)" index="2908" value="1"/>
  <variable name="X(5,6,9)" index="2975" value="1"/>
  <variable name="X(5,24,50)" index="3085" value="1"/>
  <variable name="X(6,5,50)" index="3154" value="1"/>
  <variable name="X(6,8,13)" index="3186" value="1"/>
  <variable name="X(6,9,25)" index="3267" value="1"/>
  <variable name="X(6,13,16)" index="3327" value="1"/>
  <variable name="X(6,17,9)" index="3389" value="1"/>
  <variable name="X(6,25,4)" index="3453" value="1"/>
  <variable name="X(7,17,20)" index="3538" value="1"/>
  <variable name="X(7,26,12)" index="3599" value="1"/>
  <variable name="X(8,6,23)" index="3679" value="1"/>
  <variable name="X(8,7,24)" index="3749" value="1"/>
  <variable name="X(8,17,21)" index="3815" value="1"/>
  <variable name="X(8,27,13)" index="3876" value="1"/>
  <variable name="X(9,6,33)" index="3965" value="1"/>
  <variable name="X(9,28,25)" index="4026" value="1"/>
  <variable name="X(10,11,15)" index="4085" value="1"/>
  <variable name="X(10,17,34)" index="4173" value="1"/>
  <variable name="X(10,29,5)" index="4213" value="1"/>
  <variable name="X(11,10,37)" index="4314" value="1"/>
  <variable name="X(11,30,6)" index="4352" value="1"/>
  <variable name="X(12,17,40)" index="4455" value="1"/>
  <variable name="X(12,31,16)" index="4500" value="1"/>
  <variable name="X(13,6,44)" index="4597" value="1"/>
  <variable name="X(13,12,16)" index="4638" value="1"/>
  <variable name="X(13,17,45)" index="4736" value="1"/>
  <variable name="X(13,32,17)" index="4777" value="1"/>
  <variable name="X(16,17,46)" index="4875" value="1"/>
  <variable name="X(17,4,10)" index="4908" value="1"/>
  <variable name="X(17,6,4)" index="4971" value="1"/>
  <variable name="X(17,7,12)" index="5048" value="1"/>
  <variable name="X(17,8,53)" index="5158" value="1"/>
  <variable name="X(17,10,14)" index="5188" value="1"/>
  <variable name="X(17,12,28)" index="5271" value="1"/>
  <variable name="X(17,13,58)" index="5370" value="1"/>
  <variable name="X(17,18,8)" index="5389" value="1"/>
  <variable name="X(17,19,32)" index="5482" value="1"/>
  <variable name="X(17,36,1)" index="5520" value="1"/>
  <variable name="X(18,17,61)" index="5649" value="1"/>
  <variable name="X(18,37,8)" index="5665" value="1"/>
  <variable name="X(19,17,2)" index="5728" value="1"/>
  <variable name="X(19,38,32)" index="5827" value="1"/>
 </variables>
</CPLEXSolution>
